183 5
10 10 10 10 10 

0 0 0 0 0 0 1 2 
0 0 0 0 0 0 3 3 7 8 
5 0 0 0 0 1 1 4 
7 0 0 0 0 2 1 5 
9 0 0 0 0 3 1 6 
6 0 0 0 0 2 2 12 9 
8 0 0 0 0 2 2 12 9 
2 0 0 0 0 5 2 12 10 
8 0 0 0 0 4 1 10 
6 0 0 0 0 3 1 11 
5 0 0 0 0 2 1 13 
5 0 0 0 0 1 1 13 
0 0 0 0 0 0 4 14 26 38 50 
0 0 0 0 0 0 2 15 17 
9 0 0 1 0 0 1 16 
1 0 0 3 0 0 2 24 18 
8 0 0 2 0 0 2 24 18 
10 0 0 3 0 0 1 19 
1 0 0 3 0 0 2 22 20 
2 0 0 2 0 0 1 21 
2 0 0 3 0 0 1 23 
8 0 0 1 0 0 1 23 
9 0 0 4 0 0 1 25 
7 0 0 3 0 0 1 25 
0 0 0 0 0 0 1 62 
0 0 0 0 0 0 1 27 
3 1 0 0 0 0 2 33 28 
6 2 0 0 0 0 2 36 29 
1 1 0 0 0 0 1 30 
6 5 0 0 0 0 1 31 
10 3 0 0 0 0 1 32 
1 4 0 0 0 0 2 35 34 
3 1 0 0 0 0 1 34 
2 4 0 0 0 0 1 37 
2 1 0 0 0 0 1 37 
2 3 0 0 0 0 1 37 
0 0 0 0 0 0 1 62 
0 0 0 0 0 0 2 39 40 
7 0 0 0 0 1 1 41 
3 0 0 0 0 3 1 41 
1 0 0 0 0 3 2 45 42 
1 0 0 0 0 2 1 43 
10 0 0 0 0 4 1 44 
6 0 0 0 0 4 1 46 
1 0 0 0 0 2 1 46 
4 0 0 0 0 2 2 48 47 
3 0 0 0 0 3 1 49 
5 0 0 0 0 1 1 49 
0 0 0 0 0 0 1 62 
0 0 0 0 0 0 1 51 
10 0 0 1 0 0 2 53 52 
7 0 0 4 0 0 2 58 55 
7 0 0 2 0 0 1 54 
2 0 0 1 0 0 1 55 
9 0 0 5 0 0 2 60 56 
7 0 0 3 0 0 1 57 
7 0 0 3 0 0 1 59 
2 0 0 2 0 0 1 59 
6 0 0 2 0 0 1 61 
5 0 0 2 0 0 1 61 
0 0 0 0 0 0 1 62 
0 0 0 0 0 0 5 63 75 87 99 111 
0 0 0 0 0 0 2 64 70 
6 0 0 0 1 0 2 73 65 
6 0 0 0 1 0 1 66 
1 0 0 0 2 0 2 72 67 
6 0 0 0 4 0 1 68 
10 0 0 0 2 0 1 69 
5 0 0 0 3 0 1 71 
2 0 0 0 3 0 1 72 
8 0 0 0 4 0 1 74 
7 0 0 0 2 0 1 74 
6 0 0 0 3 0 1 74 
0 0 0 0 0 0 1 123 
0 0 0 0 0 0 2 76 77 
4 0 0 0 0 1 1 78 
8 0 0 0 0 3 1 78 
8 0 0 0 0 2 2 80 79 
3 0 0 0 0 1 2 85 81 
6 0 0 0 0 2 2 85 81 
7 0 0 0 0 2 1 82 
5 0 0 0 0 4 1 83 
1 0 0 0 0 3 1 84 
2 0 0 0 0 2 1 86 
2 0 0 0 0 5 1 86 
0 0 0 0 0 0 1 123 
0 0 0 0 0 0 1 88 
3 0 0 1 0 0 2 90 89 
7 0 0 1 0 0 2 94 92 
5 0 0 2 0 0 1 91 
6 0 0 1 0 0 1 92 
10 0 0 5 0 0 1 93 
2 0 0 3 0 0 2 97 95 
2 0 0 2 0 0 1 95 
2 0 0 4 0 0 1 96 
1 0 0 3 0 0 1 98 
8 0 0 3 0 0 1 98 
0 0 0 0 0 0 1 123 
0 0 0 0 0 0 2 100 101 
8 0 0 0 1 0 2 104 102 
4 0 0 0 3 0 2 104 103 
7 0 0 0 4 0 1 103 
7 0 0 0 3 0 1 105 
7 0 0 0 1 0 1 105 
9 0 0 0 2 0 1 106 
10 0 0 0 4 0 1 107 
10 0 0 0 2 0 2 109 108 
3 0 0 0 4 0 1 110 
3 0 0 0 1 0 1 110 
0 0 0 0 0 0 1 123 
0 0 0 0 0 0 2 112 115 
3 0 0 0 0 1 2 121 113 
2 0 0 0 0 3 1 114 
9 0 0 0 0 3 2 118 116 
4 0 0 0 0 3 2 121 116 
2 0 0 0 0 1 1 117 
2 0 0 0 0 4 1 119 
4 0 0 0 0 2 1 119 
10 0 0 0 0 3 1 120 
3 0 0 0 0 3 1 122 
4 0 0 0 0 2 1 122 
0 0 0 0 0 0 1 123 
0 0 0 0 0 0 4 124 136 148 160 
0 0 0 0 0 0 1 125 
5 1 0 0 0 0 2 127 126 
4 1 0 0 0 0 2 129 128 
6 1 0 0 0 0 2 129 128 
4 4 0 0 0 0 1 130 
6 2 0 0 0 0 1 130 
10 3 0 0 0 0 2 133 131 
7 3 0 0 0 0 1 132 
2 4 0 0 0 0 1 134 
2 3 0 0 0 0 1 134 
2 3 0 0 0 0 1 135 
0 0 0 0 0 0 1 172 
0 0 0 0 0 0 3 137 140 143 
7 0 0 0 1 0 1 138 
5 0 0 0 1 0 1 139 
6 0 0 0 3 0 1 141 
4 0 0 0 1 0 1 141 
10 0 0 0 5 0 1 142 
8 0 0 0 4 0 2 146 144 
6 0 0 0 3 0 2 146 144 
8 0 0 0 3 0 1 145 
6 0 0 0 1 0 1 147 
3 0 0 0 3 0 1 147 
0 0 0 0 0 0 1 172 
0 0 0 0 0 0 1 149 
9 1 0 0 0 0 1 150 
2 5 0 0 0 0 2 153 151 
2 2 0 0 0 0 1 152 
7 1 0 0 0 0 2 156 154 
4 3 0 0 0 0 3 158 156 155 
1 3 0 0 0 0 2 158 155 
10 2 0 0 0 0 1 157 
2 3 0 0 0 0 1 157 
2 2 0 0 0 0 1 159 
10 3 0 0 0 0 1 159 
0 0 0 0 0 0 1 172 
0 0 0 0 0 0 1 161 
1 0 0 0 1 0 1 162 
6 0 0 0 1 0 2 168 163 
2 0 0 0 3 0 2 167 164 
1 0 0 0 4 0 2 169 165 
4 0 0 0 3 0 1 166 
6 0 0 0 4 0 1 170 
5 0 0 0 2 0 1 169 
1 0 0 0 3 0 1 169 
2 0 0 0 1 0 1 171 
10 0 0 0 3 0 1 171 
0 0 0 0 0 0 1 172 
0 0 0 0 0 0 3 173 176 177 
2 0 0 0 0 1 1 174 
6 0 0 0 0 1 1 175 
4 0 0 0 0 4 2 182 178 
6 0 0 0 0 2 2 182 179 
8 0 0 0 0 3 2 182 180 
3 0 0 0 0 4 1 179 
3 0 0 0 0 2 1 180 
9 0 0 0 0 3 1 181 
10 0 0 0 0 4 1 183 
10 0 0 0 0 1 1 183 
0 0 0 0 0 0 0 
